c FILE /home/rafael/Documents/HappySet/MIHS/inputs/happygen/output/graph_random_k3_p0.2_v100_20241127_083607.txt
c SOURCE This is a random graph formed for the happy graph colouring problem.
c DESCRIPTION It was generated using the problem generator of Rhyd Lewis
c
c GRAPH STATS
c Seed                             = -1684959673
c Number of Nodes                  = 100
c Edge probability defined by user = 0.5
c Number of colours k              = 3
c Number of pre-assignments        = 20
c Actual density                   = 0.509091
c 
c The degrees of nodes 1 to 100, respectively, are as follows 
c [65, 60, 60, 60, 59, 58, 58, 57, 57, 57, 57, 56, 56, 56, 56, 55, 55, 54, 54, 54, 54, 54, 53, 53, 53, 53, 
c  53, 53, 53, 52, 52, 52, 52, 52, 52, 52, 52, 52, 52, 52, 52, 52, 52, 52, 51, 51, 51, 51, 51, 51, 51, 
c  51, 50, 50, 50, 50, 50, 50, 50, 50, 50, 50, 50, 49, 49, 49, 49, 49, 49, 49, 48, 47, 47, 47, 47, 47, 
c  47, 47, 47, 47, 47, 46, 46, 46, 45, 45, 45, 45, 45, 44, 43, 43, 43, 43, 43, 42, 40, 40, 40, 34] 
c  
p edge 100 2520 3
e 1 2
e 1 4
e 1 5
e 1 7
e 1 9
e 1 10
e 1 11
e 1 13
e 1 15
e 1 16
e 1 17
e 1 18
e 1 20
e 1 21
e 1 22
e 1 23
e 1 25
e 1 26
e 1 29
e 1 31
e 1 32
e 1 33
e 1 35
e 1 36
e 1 38
e 1 41
e 1 42
e 1 44
e 1 45
e 1 46
e 1 48
e 1 49
e 1 50
e 1 51
e 1 53
e 1 54
e 1 56
e 1 57
e 1 62
e 1 63
e 1 64
e 1 65
e 1 67
e 1 68
e 1 69
e 1 70
e 1 71
e 1 72
e 1 76
e 1 78
e 1 79
e 1 80
e 1 82
e 1 83
e 1 84
e 1 85
e 1 86
e 1 87
e 1 88
e 1 89
e 1 90
e 1 92
e 1 95
e 1 96
e 1 97
e 2 3
e 2 4
e 2 5
e 2 6
e 2 11
e 2 12
e 2 13
e 2 14
e 2 16
e 2 17
e 2 18
e 2 20
e 2 21
e 2 22
e 2 24
e 2 25
e 2 26
e 2 27
e 2 30
e 2 31
e 2 32
e 2 35
e 2 37
e 2 39
e 2 40
e 2 41
e 2 42
e 2 43
e 2 45
e 2 48
e 2 50
e 2 53
e 2 55
e 2 56
e 2 57
e 2 58
e 2 60
e 2 61
e 2 62
e 2 66
e 2 68
e 2 69
e 2 71
e 2 73
e 2 74
e 2 75
e 2 76
e 2 77
e 2 82
e 2 86
e 2 87
e 2 88
e 2 89
e 2 90
e 2 91
e 2 92
e 2 93
e 2 95
e 2 98
e 3 4
e 3 6
e 3 7
e 3 8
e 3 9
e 3 12
e 3 14
e 3 15
e 3 16
e 3 17
e 3 20
e 3 21
e 3 22
e 3 24
e 3 26
e 3 27
e 3 28
e 3 29
e 3 30
e 3 31
e 3 34
e 3 35
e 3 39
e 3 40
e 3 41
e 3 43
e 3 45
e 3 47
e 3 48
e 3 52
e 3 54
e 3 56
e 3 57
e 3 58
e 3 59
e 3 60
e 3 62
e 3 66
e 3 67
e 3 69
e 3 70
e 3 71
e 3 72
e 3 73
e 3 75
e 3 76
e 3 77
e 3 78
e 3 79
e 3 80
e 3 82
e 3 83
e 3 84
e 3 88
e 3 89
e 3 90
e 3 91
e 3 96
e 3 99
e 4 5
e 4 6
e 4 8
e 4 9
e 4 10
e 4 11
e 4 15
e 4 18
e 4 20
e 4 23
e 4 25
e 4 26
e 4 28
e 4 30
e 4 31
e 4 32
e 4 33
e 4 34
e 4 35
e 4 36
e 4 39
e 4 42
e 4 43
e 4 44
e 4 46
e 4 47
e 4 48
e 4 49
e 4 50
e 4 53
e 4 54
e 4 56
e 4 57
e 4 58
e 4 61
e 4 62
e 4 64
e 4 67
e 4 69
e 4 70
e 4 73
e 4 75
e 4 77
e 4 78
e 4 79
e 4 81
e 4 83
e 4 84
e 4 85
e 4 87
e 4 89
e 4 92
e 4 94
e 4 97
e 4 98
e 4 99
e 4 100
e 5 8
e 5 9
e 5 10
e 5 11
e 5 12
e 5 13
e 5 14
e 5 15
e 5 16
e 5 17
e 5 24
e 5 25
e 5 26
e 5 29
e 5 30
e 5 31
e 5 32
e 5 33
e 5 34
e 5 35
e 5 37
e 5 38
e 5 39
e 5 43
e 5 45
e 5 46
e 5 47
e 5 49
e 5 50
e 5 51
e 5 52
e 5 54
e 5 55
e 5 56
e 5 57
e 5 58
e 5 59
e 5 60
e 5 62
e 5 63
e 5 64
e 5 65
e 5 66
e 5 70
e 5 72
e 5 73
e 5 78
e 5 82
e 5 83
e 5 86
e 5 87
e 5 88
e 5 89
e 5 93
e 5 96
e 5 97
e 6 7
e 6 8
e 6 9
e 6 10
e 6 11
e 6 12
e 6 13
e 6 17
e 6 18
e 6 19
e 6 21
e 6 24
e 6 27
e 6 28
e 6 29
e 6 30
e 6 31
e 6 32
e 6 33
e 6 34
e 6 38
e 6 39
e 6 41
e 6 46
e 6 47
e 6 48
e 6 50
e 6 51
e 6 53
e 6 54
e 6 56
e 6 57
e 6 61
e 6 62
e 6 63
e 6 64
e 6 66
e 6 68
e 6 70
e 6 71
e 6 72
e 6 73
e 6 76
e 6 78
e 6 79
e 6 80
e 6 82
e 6 84
e 6 85
e 6 86
e 6 90
e 6 92
e 6 93
e 6 95
e 6 98
e 7 9
e 7 10
e 7 13
e 7 14
e 7 17
e 7 19
e 7 21
e 7 23
e 7 24
e 7 25
e 7 26
e 7 29
e 7 32
e 7 33
e 7 35
e 7 36
e 7 38
e 7 39
e 7 40
e 7 42
e 7 43
e 7 44
e 7 45
e 7 47
e 7 48
e 7 51
e 7 52
e 7 54
e 7 56
e 7 57
e 7 58
e 7 59
e 7 60
e 7 61
e 7 63
e 7 64
e 7 66
e 7 68
e 7 69
e 7 70
e 7 72
e 7 75
e 7 77
e 7 78
e 7 80
e 7 82
e 7 84
e 7 86
e 7 87
e 7 88
e 7 93
e 7 94
e 7 95
e 7 99
e 7 100
e 8 9
e 8 11
e 8 12
e 8 13
e 8 15
e 8 19
e 8 20
e 8 21
e 8 22
e 8 23
e 8 24
e 8 25
e 8 27
e 8 28
e 8 29
e 8 32
e 8 33
e 8 35
e 8 36
e 8 38
e 8 40
e 8 42
e 8 44
e 8 45
e 8 46
e 8 47
e 8 50
e 8 51
e 8 52
e 8 53
e 8 54
e 8 59
e 8 60
e 8 61
e 8 62
e 8 65
e 8 69
e 8 72
e 8 73
e 8 75
e 8 77
e 8 81
e 8 82
e 8 84
e 8 86
e 8 87
e 8 88
e 8 89
e 8 90
e 8 92
e 8 94
e 8 95
e 8 96
e 9 10
e 9 11
e 9 13
e 9 15
e 9 18
e 9 19
e 9 22
e 9 23
e 9 24
e 9 25
e 9 26
e 9 27
e 9 28
e 9 32
e 9 33
e 9 34
e 9 35
e 9 36
e 9 37
e 9 39
e 9 40
e 9 42
e 9 48
e 9 51
e 9 55
e 9 56
e 9 59
e 9 61
e 9 62
e 9 63
e 9 66
e 9 67
e 9 68
e 9 72
e 9 73
e 9 74
e 9 76
e 9 77
e 9 80
e 9 81
e 9 82
e 9 83
e 9 85
e 9 86
e 9 87
e 9 89
e 9 91
e 9 92
e 9 94
e 9 100
e 10 11
e 10 12
e 10 13
e 10 14
e 10 15
e 10 16
e 10 18
e 10 19
e 10 20
e 10 22
e 10 26
e 10 27
e 10 28
e 10 29
e 10 31
e 10 32
e 10 33
e 10 35
e 10 36
e 10 38
e 10 40
e 10 41
e 10 43
e 10 46
e 10 47
e 10 49
e 10 51
e 10 52
e 10 53
e 10 54
e 10 55
e 10 56
e 10 57
e 10 60
e 10 61
e 10 63
e 10 64
e 10 65
e 10 68
e 10 73
e 10 75
e 10 77
e 10 80
e 10 85
e 10 86
e 10 87
e 10 88
e 10 90
e 10 91
e 10 93
e 10 100
e 11 12
e 11 13
e 11 17
e 11 19
e 11 21
e 11 22
e 11 23
e 11 25
e 11 29
e 11 30
e 11 32
e 11 33
e 11 34
e 11 36
e 11 37
e 11 38
e 11 39
e 11 40
e 11 45
e 11 46
e 11 47
e 11 48
e 11 53
e 11 57
e 11 60
e 11 64
e 11 66
e 11 68
e 11 69
e 11 70
e 11 71
e 11 72
e 11 73
e 11 74
e 11 75
e 11 79
e 11 80
e 11 81
e 11 83
e 11 84
e 11 87
e 11 90
e 11 92
e 11 93
e 11 94
e 11 95
e 11 96
e 11 97
e 11 98
e 12 14
e 12 16
e 12 17
e 12 18
e 12 19
e 12 21
e 12 23
e 12 26
e 12 27
e 12 28
e 12 29
e 12 32
e 12 33
e 12 34
e 12 36
e 12 38
e 12 43
e 12 45
e 12 47
e 12 48
e 12 52
e 12 55
e 12 57
e 12 59
e 12 60
e 12 61
e 12 63
e 12 64
e 12 65
e 12 66
e 12 67
e 12 68
e 12 71
e 12 72
e 12 73
e 12 74
e 12 76
e 12 80
e 12 81
e 12 83
e 12 86
e 12 87
e 12 88
e 12 91
e 12 92
e 12 94
e 12 95
e 12 97
e 12 100
e 13 15
e 13 16
e 13 17
e 13 18
e 13 19
e 13 21
e 13 23
e 13 29
e 13 32
e 13 33
e 13 35
e 13 37
e 13 38
e 13 40
e 13 41
e 13 42
e 13 43
e 13 46
e 13 49
e 13 53
e 13 54
e 13 55
e 13 56
e 13 58
e 13 61
e 13 62
e 13 63
e 13 68
e 13 69
e 13 71
e 13 72
e 13 73
e 13 74
e 13 76
e 13 77
e 13 78
e 13 79
e 13 81
e 13 82
e 13 83
e 13 84
e 13 87
e 13 91
e 13 92
e 13 94
e 13 95
e 13 100
e 14 15
e 14 16
e 14 17
e 14 18
e 14 20
e 14 22
e 14 25
e 14 28
e 14 29
e 14 30
e 14 31
e 14 32
e 14 33
e 14 34
e 14 36
e 14 37
e 14 38
e 14 39
e 14 41
e 14 44
e 14 46
e 14 47
e 14 49
e 14 55
e 14 56
e 14 60
e 14 63
e 14 65
e 14 67
e 14 68
e 14 69
e 14 72
e 14 73
e 14 74
e 14 76
e 14 77
e 14 78
e 14 79
e 14 80
e 14 82
e 14 83
e 14 84
e 14 85
e 14 86
e 14 87
e 14 89
e 14 91
e 14 92
e 14 98
e 14 100
e 15 20
e 15 22
e 15 26
e 15 29
e 15 30
e 15 31
e 15 32
e 15 34
e 15 36
e 15 39
e 15 41
e 15 42
e 15 43
e 15 44
e 15 47
e 15 48
e 15 49
e 15 51
e 15 53
e 15 54
e 15 55
e 15 56
e 15 59
e 15 61
e 15 63
e 15 64
e 15 65
e 15 66
e 15 68
e 15 69
e 15 71
e 15 73
e 15 74
e 15 75
e 15 76
e 15 77
e 15 78
e 15 79
e 15 80
e 15 82
e 15 83
e 15 85
e 15 89
e 15 95
e 15 96
e 15 98
e 15 99
e 16 18
e 16 20
e 16 21
e 16 23
e 16 26
e 16 27
e 16 28
e 16 31
e 16 32
e 16 34
e 16 38
e 16 40
e 16 41
e 16 42
e 16 43
e 16 48
e 16 51
e 16 52
e 16 53
e 16 54
e 16 56
e 16 57
e 16 58
e 16 59
e 16 60
e 16 61
e 16 63
e 16 65
e 16 69
e 16 71
e 16 73
e 16 75
e 16 77
e 16 78
e 16 79
e 16 80
e 16 82
e 16 84
e 16 85
e 16 88
e 16 89
e 16 90
e 16 91
e 16 92
e 16 93
e 16 94
e 16 96
e 17 19
e 17 20
e 17 24
e 17 28
e 17 29
e 17 30
e 17 31
e 17 36
e 17 37
e 17 44
e 17 46
e 17 47
e 17 48
e 17 50
e 17 51
e 17 54
e 17 55
e 17 57
e 17 58
e 17 59
e 17 60
e 17 61
e 17 63
e 17 64
e 17 65
e 17 66
e 17 67
e 17 68
e 17 69
e 17 70
e 17 71
e 17 74
e 17 77
e 17 79
e 17 81
e 17 82
e 17 83
e 17 87
e 17 88
e 17 89
e 17 90
e 17 94
e 17 97
e 17 99
e 17 100
e 18 21
e 18 23
e 18 25
e 18 27
e 18 29
e 18 30
e 18 31
e 18 32
e 18 35
e 18 36
e 18 37
e 18 39
e 18 41
e 18 44
e 18 46
e 18 47
e 18 48
e 18 51
e 18 53
e 18 57
e 18 59
e 18 62
e 18 63
e 18 64
e 18 65
e 18 68
e 18 69
e 18 70
e 18 71
e 18 73
e 18 74
e 18 75
e 18 79
e 18 80
e 18 82
e 18 83
e 18 87
e 18 88
e 18 89
e 18 91
e 18 92
e 18 93
e 18 96
e 18 97
e 19 20
e 19 21
e 19 24
e 19 26
e 19 28
e 19 30
e 19 31
e 19 32
e 19 33
e 19 34
e 19 37
e 19 38
e 19 39
e 19 41
e 19 42
e 19 45
e 19 47
e 19 49
e 19 51
e 19 52
e 19 55
e 19 56
e 19 57
e 19 63
e 19 64
e 19 65
e 19 66
e 19 67
e 19 69
e 19 71
e 19 72
e 19 75
e 19 77
e 19 79
e 19 83
e 19 84
e 19 86
e 19 88
e 19 89
e 19 91
e 19 94
e 19 95
e 19 97
e 19 98
e 19 99
e 20 23
e 20 24
e 20 28
e 20 30
e 20 31
e 20 34
e 20 37
e 20 39
e 20 40
e 20 41
e 20 42
e 20 43
e 20 45
e 20 46
e 20 49
e 20 50
e 20 52
e 20 55
e 20 56
e 20 57
e 20 58
e 20 59
e 20 62
e 20 65
e 20 67
e 20 68
e 20 69
e 20 70
e 20 72
e 20 75
e 20 76
e 20 77
e 20 80
e 20 81
e 20 82
e 20 84
e 20 86
e 20 90
e 20 92
e 20 94
e 20 96
e 20 98
e 20 99
e 21 23
e 21 35
e 21 37
e 21 39
e 21 40
e 21 41
e 21 42
e 21 43
e 21 45
e 21 46
e 21 47
e 21 48
e 21 49
e 21 53
e 21 57
e 21 58
e 21 59
e 21 60
e 21 62
e 21 63
e 21 65
e 21 67
e 21 68
e 21 69
e 21 70
e 21 73
e 21 74
e 21 77
e 21 78
e 21 80
e 21 81
e 21 82
e 21 83
e 21 84
e 21 88
e 21 90
e 21 93
e 21 94
e 21 96
e 21 97
e 21 99
e 21 100
e 22 24
e 22 26
e 22 27
e 22 28
e 22 29
e 22 31
e 22 34
e 22 35
e 22 37
e 22 39
e 22 40
e 22 41
e 22 42
e 22 43
e 22 45
e 22 46
e 22 47
e 22 49
e 22 50
e 22 51
e 22 54
e 22 56
e 22 57
e 22 58
e 22 61
e 22 64
e 22 66
e 22 68
e 22 70
e 22 72
e 22 75
e 22 77
e 22 80
e 22 81
e 22 83
e 22 85
e 22 86
e 22 89
e 22 90
e 22 93
e 22 95
e 22 96
e 22 98
e 22 99
e 22 100
e 23 26
e 23 33
e 23 34
e 23 36
e 23 38
e 23 40
e 23 42
e 23 43
e 23 44
e 23 45
e 23 46
e 23 49
e 23 50
e 23 52
e 23 53
e 23 55
e 23 57
e 23 59
e 23 60
e 23 62
e 23 63
e 23 67
e 23 68
e 23 70
e 23 71
e 23 72
e 23 73
e 23 74
e 23 75
e 23 76
e 23 80
e 23 82
e 23 83
e 23 85
e 23 89
e 23 91
e 23 93
e 23 94
e 23 95
e 23 97
e 23 100
e 24 26
e 24 27
e 24 29
e 24 30
e 24 31
e 24 33
e 24 35
e 24 36
e 24 38
e 24 40
e 24 42
e 24 43
e 24 44
e 24 45
e 24 46
e 24 47
e 24 48
e 24 49
e 24 51
e 24 52
e 24 53
e 24 54
e 24 55
e 24 57
e 24 58
e 24 59
e 24 60
e 24 61
e 24 65
e 24 68
e 24 70
e 24 71
e 24 76
e 24 83
e 24 84
e 24 88
e 24 92
e 24 93
e 24 95
e 24 97
e 24 99
e 24 100
e 25 26
e 25 27
e 25 28
e 25 29
e 25 31
e 25 33
e 25 34
e 25 35
e 25 36
e 25 39
e 25 43
e 25 44
e 25 45
e 25 48
e 25 51
e 25 52
e 25 53
e 25 54
e 25 56
e 25 57
e 25 59
e 25 61
e 25 63
e 25 64
e 25 66
e 25 67
e 25 70
e 25 73
e 25 74
e 25 75
e 25 76
e 25 77
e 25 78
e 25 79
e 25 80
e 25 81
e 25 84
e 25 85
e 25 86
e 25 88
e 25 90
e 25 94
e 25 96
e 26 30
e 26 34
e 26 35
e 26 36
e 26 37
e 26 40
e 26 42
e 26 45
e 26 46
e 26 48
e 26 50
e 26 52
e 26 55
e 26 56
e 26 57
e 26 59
e 26 60
e 26 61
e 26 62
e 26 65
e 26 67
e 26 70
e 26 71
e 26 75
e 26 78
e 26 79
e 26 80
e 26 82
e 26 83
e 26 87
e 26 90
e 26 91
e 26 92
e 26 97
e 26 98
e 26 99
e 26 100
e 27 28
e 27 29
e 27 30
e 27 31
e 27 33
e 27 34
e 27 36
e 27 39
e 27 40
e 27 42
e 27 43
e 27 47
e 27 48
e 27 49
e 27 50
e 27 51
e 27 52
e 27 54
e 27 56
e 27 59
e 27 64
e 27 65
e 27 66
e 27 67
e 27 70
e 27 71
e 27 74
e 27 75
e 27 76
e 27 78
e 27 79
e 27 82
e 27 83
e 27 84
e 27 88
e 27 90
e 27 92
e 27 93
e 27 97
e 27 98
e 27 99
e 28 29
e 28 30
e 28 31
e 28 35
e 28 37
e 28 38
e 28 40
e 28 41
e 28 44
e 28 48
e 28 49
e 28 51
e 28 53
e 28 54
e 28 56
e 28 58
e 28 60
e 28 62
e 28 63
e 28 64
e 28 65
e 28 67
e 28 71
e 28 72
e 28 74
e 28 75
e 28 76
e 28 77
e 28 79
e 28 82
e 28 85
e 28 86
e 28 88
e 28 89
e 28 92
e 28 95
e 28 97
e 28 100
e 29 30
e 29 31
e 29 32
e 29 35
e 29 37
e 29 39
e 29 41
e 29 44
e 29 49
e 29 50
e 29 51
e 29 53
e 29 55
e 29 58
e 29 61
e 29 62
e 29 64
e 29 65
e 29 66
e 29 67
e 29 69
e 29 76
e 29 80
e 29 82
e 29 83
e 29 84
e 29 90
e 29 91
e 29 94
e 29 96
e 29 97
e 29 98
e 29 99
e 29 100
e 30 32
e 30 34
e 30 35
e 30 38
e 30 39
e 30 41
e 30 45
e 30 46
e 30 47
e 30 48
e 30 50
e 30 53
e 30 54
e 30 55
e 30 57
e 30 58
e 30 60
e 30 62
e 30 63
e 30 65
e 30 71
e 30 74
e 30 77
e 30 78
e 30 79
e 30 83
e 30 86
e 30 87
e 30 88
e 30 89
e 30 91
e 30 92
e 30 93
e 30 98
e 30 100
e 31 32
e 31 35
e 31 36
e 31 37
e 31 42
e 31 43
e 31 45
e 31 47
e 31 50
e 31 51
e 31 52
e 31 54
e 31 55
e 31 58
e 31 63
e 31 68
e 31 70
e 31 71
e 31 72
e 31 74
e 31 76
e 31 80
e 31 81
e 31 87
e 31 88
e 31 90
e 31 92
e 31 94
e 31 96
e 31 97
e 31 99
e 31 100
e 32 36
e 32 38
e 32 41
e 32 43
e 32 45
e 32 47
e 32 48
e 32 49
e 32 50
e 32 53
e 32 58
e 32 62
e 32 66
e 32 67
e 32 71
e 32 72
e 32 73
e 32 74
e 32 77
e 32 78
e 32 81
e 32 82
e 32 83
e 32 84
e 32 85
e 32 88
e 32 94
e 32 95
e 32 96
e 32 97
e 32 98
e 32 99
e 33 35
e 33 37
e 33 38
e 33 39
e 33 40
e 33 43
e 33 47
e 33 48
e 33 50
e 33 51
e 33 54
e 33 55
e 33 56
e 33 57
e 33 58
e 33 62
e 33 63
e 33 65
e 33 66
e 33 68
e 33 70
e 33 74
e 33 75
e 33 77
e 33 78
e 33 79
e 33 80
e 33 84
e 33 86
e 33 89
e 33 90
e 33 92
e 33 93
e 33 97
e 33 100
e 34 35
e 34 37
e 34 38
e 34 40
e 34 41
e 34 42
e 34 45
e 34 47
e 34 49
e 34 51
e 34 54
e 34 55
e 34 56
e 34 57
e 34 60
e 34 63
e 34 64
e 34 66
e 34 68
e 34 69
e 34 73
e 34 74
e 34 78
e 34 81
e 34 83
e 34 86
e 34 88
e 34 89
e 34 91
e 34 94
e 34 95
e 34 96
e 34 97
e 34 99
e 35 37
e 35 40
e 35 41
e 35 42
e 35 45
e 35 46
e 35 49
e 35 50
e 35 53
e 35 60
e 35 61
e 35 63
e 35 64
e 35 67
e 35 69
e 35 70
e 35 71
e 35 73
e 35 74
e 35 75
e 35 77
e 35 79
e 35 81
e 35 84
e 35 85
e 35 88
e 35 89
e 35 91
e 35 95
e 35 98
e 36 38
e 36 39
e 36 40
e 36 41
e 36 42
e 36 43
e 36 45
e 36 49
e 36 53
e 36 56
e 36 58
e 36 60
e 36 61
e 36 63
e 36 64
e 36 66
e 36 67
e 36 69
e 36 70
e 36 72
e 36 75
e 36 76
e 36 78
e 36 79
e 36 80
e 36 81
e 36 82
e 36 84
e 36 87
e 36 90
e 36 93
e 36 98
e 36 99
e 37 38
e 37 39
e 37 40
e 37 41
e 37 42
e 37 43
e 37 44
e 37 49
e 37 50
e 37 57
e 37 58
e 37 59
e 37 61
e 37 63
e 37 68
e 37 72
e 37 73
e 37 74
e 37 75
e 37 76
e 37 78
e 37 81
e 37 82
e 37 83
e 37 87
e 37 88
e 37 89
e 37 90
e 37 91
e 37 94
e 37 95
e 37 97
e 37 98
e 38 44
e 38 45
e 38 48
e 38 50
e 38 52
e 38 53
e 38 55
e 38 57
e 38 60
e 38 61
e 38 62
e 38 63
e 38 64
e 38 69
e 38 70
e 38 72
e 38 75
e 38 76
e 38 78
e 38 79
e 38 85
e 38 86
e 38 87
e 38 88
e 38 89
e 38 90
e 38 94
e 38 95
e 38 97
e 38 98
e 38 99
e 39 40
e 39 41
e 39 46
e 39 47
e 39 48
e 39 49
e 39 50
e 39 51
e 39 52
e 39 53
e 39 56
e 39 59
e 39 63
e 39 64
e 39 68
e 39 69
e 39 70
e 39 74
e 39 76
e 39 77
e 39 80
e 39 82
e 39 84
e 39 85
e 39 86
e 39 87
e 39 89
e 39 93
e 39 96
e 39 98
e 40 42
e 40 43
e 40 44
e 40 46
e 40 50
e 40 51
e 40 52
e 40 53
e 40 55
e 40 56
e 40 58
e 40 59
e 40 60
e 40 61
e 40 63
e 40 64
e 40 67
e 40 70
e 40 71
e 40 72
e 40 73
e 40 75
e 40 76
e 40 85
e 40 86
e 40 90
e 40 93
e 40 94
e 40 97
e 41 42
e 41 44
e 41 45
e 41 46
e 41 47
e 41 48
e 41 49
e 41 50
e 41 51
e 41 53
e 41 57
e 41 62
e 41 65
e 41 67
e 41 72
e 41 75
e 41 77
e 41 80
e 41 83
e 41 84
e 41 86
e 41 87
e 41 88
e 41 89
e 41 90
e 41 91
e 41 95
e 41 98
e 41 99
e 42 43
e 42 44
e 42 48
e 42 51
e 42 52
e 42 53
e 42 54
e 42 58
e 42 65
e 42 66
e 42 68
e 42 70
e 42 71
e 42 72
e 42 73
e 42 75
e 42 76
e 42 77
e 42 84
e 42 86
e 42 87
e 42 88
e 42 89
e 42 92
e 42 93
e 42 94
e 42 95
e 42 97
e 43 44
e 43 45
e 43 46
e 43 50
e 43 51
e 43 54
e 43 57
e 43 58
e 43 59
e 43 63
e 43 65
e 43 67
e 43 68
e 43 69
e 43 71
e 43 73
e 43 77
e 43 79
e 43 80
e 43 83
e 43 86
e 43 87
e 43 90
e 43 91
e 43 92
e 43 96
e 43 97
e 43 98
e 44 45
e 44 46
e 44 47
e 44 49
e 44 51
e 44 52
e 44 53
e 44 54
e 44 58
e 44 59
e 44 60
e 44 61
e 44 62
e 44 63
e 44 65
e 44 67
e 44 69
e 44 76
e 44 77
e 44 78
e 44 79
e 44 80
e 44 82
e 44 83
e 44 84
e 44 85
e 44 88
e 44 89
e 44 92
e 44 94
e 44 95
e 44 96
e 44 99
e 45 46
e 45 48
e 45 49
e 45 50
e 45 51
e 45 53
e 45 54
e 45 58
e 45 59
e 45 60
e 45 63
e 45 66
e 45 68
e 45 69
e 45 71
e 45 72
e 45 74
e 45 79
e 45 80
e 45 81
e 45 84
e 45 87
e 45 89
e 45 91
e 45 94
e 46 49
e 46 50
e 46 51
e 46 52
e 46 53
e 46 55
e 46 56
e 46 58
e 46 60
e 46 61
e 46 62
e 46 63
e 46 65
e 46 66
e 46 67
e 46 71
e 46 81
e 46 83
e 46 84
e 46 85
e 46 88
e 46 91
e 46 92
e 46 93
e 46 98
e 46 100
e 47 49
e 47 51
e 47 52
e 47 53
e 47 55
e 47 57
e 47 61
e 47 67
e 47 70
e 47 72
e 47 73
e 47 76
e 47 77
e 47 78
e 47 80
e 47 81
e 47 82
e 47 83
e 47 84
e 47 86
e 47 89
e 47 90
e 47 93
e 47 95
e 47 98
e 48 50
e 48 51
e 48 52
e 48 54
e 48 56
e 48 58
e 48 60
e 48 61
e 48 62
e 48 64
e 48 69
e 48 72
e 48 73
e 48 74
e 48 76
e 48 79
e 48 81
e 48 82
e 48 86
e 48 88
e 48 93
e 48 94
e 48 95
e 48 98
e 49 50
e 49 52
e 49 54
e 49 55
e 49 56
e 49 58
e 49 59
e 49 60
e 49 61
e 49 62
e 49 63
e 49 64
e 49 67
e 49 68
e 49 70
e 49 71
e 49 73
e 49 78
e 49 83
e 49 84
e 49 89
e 49 90
e 49 98
e 49 100
e 50 51
e 50 52
e 50 57
e 50 58
e 50 61
e 50 62
e 50 66
e 50 67
e 50 68
e 50 70
e 50 71
e 50 73
e 50 75
e 50 77
e 50 85
e 50 86
e 50 88
e 50 93
e 50 95
e 50 96
e 50 97
e 50 98
e 50 99
e 51 53
e 51 54
e 51 55
e 51 56
e 51 57
e 51 64
e 51 68
e 51 73
e 51 74
e 51 79
e 51 81
e 51 85
e 51 86
e 51 87
e 51 90
e 51 95
e 51 97
e 51 98
e 51 100
e 52 54
e 52 56
e 52 59
e 52 60
e 52 63
e 52 64
e 52 67
e 52 68
e 52 69
e 52 72
e 52 73
e 52 78
e 52 81
e 52 82
e 52 85
e 52 87
e 52 88
e 52 89
e 52 90
e 52 92
e 52 93
e 52 95
e 52 96
e 52 97
e 52 99
e 52 100
e 53 55
e 53 56
e 53 61
e 53 63
e 53 65
e 53 69
e 53 71
e 53 76
e 53 78
e 53 80
e 53 81
e 53 83
e 53 85
e 53 86
e 53 87
e 53 92
e 53 96
e 53 97
e 53 98
e 54 57
e 54 59
e 54 60
e 54 63
e 54 69
e 54 71
e 54 72
e 54 73
e 54 74
e 54 76
e 54 78
e 54 81
e 54 82
e 54 83
e 54 85
e 54 91
e 54 92
e 54 94
e 54 95
e 54 96
e 54 99
e 55 60
e 55 61
e 55 63
e 55 64
e 55 65
e 55 66
e 55 67
e 55 68
e 55 70
e 55 71
e 55 72
e 55 77
e 55 79
e 55 81
e 55 82
e 55 84
e 55 85
e 55 86
e 55 87
e 55 88
e 55 90
e 55 95
e 55 96
e 55 97
e 56 57
e 56 58
e 56 59
e 56 61
e 56 63
e 56 64
e 56 65
e 56 66
e 56 67
e 56 71
e 56 73
e 56 75
e 56 82
e 56 83
e 56 87
e 56 89
e 56 91
e 56 92
e 56 98
e 57 59
e 57 60
e 57 64
e 57 65
e 57 66
e 57 67
e 57 69
e 57 72
e 57 77
e 57 85
e 57 87
e 57 90
e 57 91
e 57 94
e 57 97
e 57 98
e 57 99
e 58 61
e 58 62
e 58 63
e 58 66
e 58 68
e 58 69
e 58 70
e 58 73
e 58 74
e 58 79
e 58 85
e 58 86
e 58 88
e 58 90
e 58 91
e 58 94
e 58 95
e 58 96
e 58 99
e 58 100
e 59 60
e 59 61
e 59 64
e 59 67
e 59 68
e 59 69
e 59 70
e 59 71
e 59 72
e 59 74
e 59 75
e 59 76
e 59 78
e 59 79
e 59 82
e 59 85
e 59 86
e 59 87
e 59 92
e 59 96
e 59 97
e 59 100
e 60 61
e 60 62
e 60 64
e 60 65
e 60 66
e 60 67
e 60 69
e 60 73
e 60 74
e 60 75
e 60 76
e 60 81
e 60 82
e 60 83
e 60 90
e 60 91
e 60 93
e 60 99
e 61 66
e 61 67
e 61 68
e 61 69
e 61 70
e 61 73
e 61 74
e 61 77
e 61 79
e 61 81
e 61 85
e 61 86
e 61 87
e 61 90
e 61 92
e 61 98
e 62 63
e 62 64
e 62 66
e 62 67
e 62 68
e 62 69
e 62 72
e 62 73
e 62 74
e 62 75
e 62 78
e 62 79
e 62 80
e 62 81
e 62 83
e 62 85
e 62 86
e 62 88
e 62 91
e 62 92
e 62 94
e 62 97
e 63 64
e 63 65
e 63 67
e 63 72
e 63 81
e 63 86
e 63 89
e 63 90
e 63 99
e 63 100
e 64 68
e 64 69
e 64 70
e 64 71
e 64 72
e 64 74
e 64 76
e 64 77
e 64 78
e 64 85
e 64 86
e 64 87
e 64 92
e 64 93
e 64 95
e 65 66
e 65 67
e 65 71
e 65 74
e 65 76
e 65 77
e 65 78
e 65 81
e 65 82
e 65 84
e 65 86
e 65 88
e 65 89
e 65 90
e 65 92
e 65 95
e 65 96
e 65 99
e 66 67
e 66 69
e 66 70
e 66 71
e 66 72
e 66 74
e 66 75
e 66 76
e 66 77
e 66 78
e 66 79
e 66 80
e 66 81
e 66 83
e 66 84
e 66 86
e 66 93
e 66 99
e 67 68
e 67 77
e 67 80
e 67 83
e 67 85
e 67 88
e 67 93
e 67 95
e 67 96
e 67 98
e 67 100
e 68 74
e 68 75
e 68 80
e 68 82
e 68 85
e 68 87
e 68 89
e 68 90
e 68 91
e 68 92
e 68 93
e 68 95
e 69 70
e 69 73
e 69 76
e 69 77
e 69 80
e 69 81
e 69 84
e 69 85
e 69 89
e 69 96
e 69 98
e 69 99
e 70 73
e 70 75
e 70 76
e 70 78
e 70 79
e 70 82
e 70 84
e 70 86
e 70 87
e 70 90
e 70 91
e 70 92
e 70 93
e 70 94
e 71 72
e 71 74
e 71 75
e 71 81
e 71 82
e 71 85
e 71 87
e 71 91
e 71 92
e 71 97
e 71 99
e 71 100
e 72 78
e 72 80
e 72 81
e 72 83
e 72 85
e 72 89
e 72 93
e 72 96
e 72 97
e 72 99
e 73 75
e 73 76
e 73 77
e 73 84
e 73 89
e 73 90
e 73 91
e 73 99
e 74 77
e 74 80
e 74 83
e 74 84
e 74 85
e 74 87
e 74 93
e 74 95
e 74 96
e 74 97
e 74 99
e 75 77
e 75 78
e 75 79
e 75 81
e 75 83
e 75 84
e 75 87
e 75 88
e 75 90
e 75 95
e 75 97
e 76 77
e 76 78
e 76 79
e 76 83
e 76 84
e 76 86
e 76 88
e 76 93
e 76 96
e 76 97
e 76 99
e 77 80
e 77 83
e 77 86
e 77 93
e 77 94
e 77 100
e 78 79
e 78 82
e 78 84
e 78 86
e 78 88
e 78 89
e 78 90
e 78 91
e 78 93
e 78 96
e 78 98
e 79 80
e 79 85
e 79 88
e 79 89
e 79 91
e 79 92
e 79 93
e 79 94
e 79 95
e 79 96
e 79 98
e 80 81
e 80 82
e 80 89
e 80 91
e 80 93
e 80 94
e 80 97
e 80 98
e 80 100
e 81 82
e 81 88
e 81 90
e 81 91
e 81 92
e 81 93
e 81 94
e 81 95
e 81 96
e 81 100
e 82 84
e 82 91
e 82 92
e 82 93
e 82 94
e 83 84
e 83 85
e 83 91
e 83 95
e 84 86
e 84 87
e 84 88
e 84 94
e 84 99
e 85 88
e 85 89
e 85 93
e 85 94
e 85 96
e 85 100
e 86 91
e 86 92
e 87 91
e 87 92
e 87 96
e 87 98
e 87 99
e 88 95
e 88 98
e 89 91
e 89 94
e 89 95
e 89 96
e 90 93
e 90 96
e 90 99
e 91 97
e 91 99
e 91 100
e 92 94
e 92 98
e 93 94
e 93 96
e 94 96
e 94 97
e 94 99
e 95 96
e 95 100
e 98 100
n 6 1
n 14 1
n 33 1
n 36 1
n 40 1
n 49 1
n 51 1
n 56 1
n 57 1
n 60 1
n 63 1
n 66 1
n 68 1
n 83 1
n 86 1
n 88 3
n 91 1
n 92 1
n 96 2
n 100 1
